workspace_BA/ba-solver/src/main/resources/input_graphs/reference_vc/bara_alb_n_120_m_2_0.gr
p td 120 236
0 2
0 3
0 4
0 6
0 9
0 11
0 13
0 14
0 16
0 17
0 18
0 23
0 25
0 30
0 39
0 40
0 51
0 55
0 56
0 65
0 103
0 119
1 2
1 7
1 8
1 9
1 20
1 43
1 49
1 54
1 62
1 86
1 118
2 3
2 4
2 5
2 10
2 14
2 15
2 20
2 21
2 25
2 33
2 34
2 46
2 52
2 53
2 73
2 78
2 81
2 96
2 99
2 101
2 109
2 116
3 5
3 6
3 10
3 18
3 19
3 22
3 32
3 50
3 60
3 69
4 8
4 32
4 37
4 41
4 42
4 69
4 71
4 82
4 108
4 111
5 35
5 58
5 86
6 7
6 26
6 55
6 57
6 64
6 106
6 109
7 19
7 115
8 44
8 66
8 94
9 12
9 15
9 24
9 29
9 48
9 60
9 67
9 79
9 116
10 11
10 12
10 13
10 36
11 31
11 75
12 16
12 17
12 23
12 24
12 36
12 66
12 75
12 119
13 28
13 31
13 79
13 88
13 93
13 95
14 61
14 107
15 45
15 78
16 44
16 45
16 82
16 97
16 104
18 27
18 30
18 34
18 47
18 68
18 77
18 87
18 115
19 37
19 68
19 91
20 21
20 27
20 28
20 74
20 77
21 22
21 52
21 53
21 59
21 87
21 90
21 100
23 26
24 33
24 47
24 48
24 63
24 99
25 35
25 43
25 46
25 51
25 64
25 104
27 29
27 38
27 102
28 39
29 80
30 50
31 49
31 56
31 59
31 83
31 98
31 112
32 72
34 80
35 38
35 40
35 41
35 111
35 114
36 71
37 42
37 58
37 72
40 85
41 84
41 91
41 105
41 106
41 113
42 57
42 76
42 117
44 92
46 97
49 94
50 54
50 100
51 73
52 65
53 63
53 74
53 85
53 95
54 114
56 76
56 83
56 84
57 61
58 70
60 62
60 67
60 105
61 103
61 118
62 89
63 70
63 96
63 102
63 107
63 112
63 113
65 88
65 89
67 110
67 117
69 81
70 101
71 90
71 98
74 92
77 93
82 108
103 110
