matlab_plots/results/reference_set/bara_alb_n_120_m_2_0.res
file: bara_alb_n_120_m_2_0.gr
total_nodes: 120
c_par: 2
dens: 2.0
lowest_k: 44
redu_time: 0.015
redu_nodes: 120
redu_edges: 236
heur_time: 0.000
heur_nodes: 119
heur_edges: 236
heur_k_used: 0
kernel_times: 0.000;0.000;0.000;0.000;0.015;0.005;0.016;0.016;
kernel_nodes: 120;120;120;120;120;120;120;120;
kernel_edges: 236;236;236;236;236;236;236;236;
hs_st_times: 0.000;0.016;0.031;0.187;0.905;5.966;43.722;
pipe_2_sum: 50.894
pipe_2_res: false
pipe_2_timeout: true
